c Created with the Wolfram Language : www.wolfram.com
c 
p edge 100 730
e 2 3
e 3 6
e 1 8
e 3 9
e 6 9
e 6 11
e 10 11
e 6 12
e 9 12
e 1 13
e 4 14
e 6 15
e 10 15
e 11 15
e 12 16
e 13 16
e 1 19
e 8 19
e 10 19
e 14 19
e 5 20
e 9 20
e 11 20
e 15 20
e 18 20
e 18 21
e 2 22
e 8 22
e 11 22
e 18 22
e 2 23
e 18 23
e 21 23
e 22 23
e 1 24
e 14 24
e 3 25
e 7 25
e 8 25
e 18 25
e 20 25
e 21 25
e 17 26
e 7 27
e 9 27
e 14 27
e 16 27
e 20 27
e 26 27
e 24 28
e 25 28
e 27 28
e 1 29
e 8 29
e 12 29
e 28 29
e 4 30
e 8 30
e 9 30
e 11 30
e 28 30
e 29 30
e 7 31
e 11 31
e 22 31
e 25 31
e 6 32
e 15 32
e 16 32
e 19 32
e 23 32
e 10 33
e 9 34
e 16 34
e 19 34
e 5 35
e 17 35
e 19 35
e 23 35
e 24 35
e 34 35
e 5 36
e 15 36
e 22 36
e 10 37
e 11 37
e 28 37
e 29 37
e 13 38
e 24 38
e 30 38
e 2 39
e 5 39
e 8 39
e 9 39
e 16 39
e 17 39
e 19 39
e 20 39
e 34 39
e 4 40
e 7 40
e 8 40
e 12 40
e 22 40
e 27 40
e 1 41
e 8 41
e 21 41
e 37 41
e 8 42
e 11 42
e 15 42
e 21 42
e 29 42
e 34 42
e 1 43
e 10 43
e 11 43
e 18 43
e 8 44
e 15 44
e 18 44
e 19 44
e 21 44
e 25 44
e 39 44
e 3 45
e 5 45
e 15 45
e 23 45
e 24 45
e 27 45
e 30 45
e 34 45
e 7 46
e 13 46
e 18 46
e 29 46
e 42 46
e 43 46
e 3 47
e 12 47
e 31 47
e 32 47
e 40 47
e 46 47
e 21 48
e 24 48
e 25 48
e 31 48
e 42 48
e 2 49
e 5 49
e 6 49
e 7 49
e 21 49
e 35 49
e 14 50
e 19 50
e 22 50
e 40 50
e 41 50
e 49 50
e 9 51
e 12 51
e 13 51
e 17 51
e 23 51
e 24 51
e 41 51
e 8 52
e 16 52
e 19 52
e 28 52
e 32 52
e 39 52
e 42 52
e 46 52
e 47 52
e 50 52
e 6 53
e 12 53
e 19 53
e 20 53
e 24 53
e 30 53
e 32 53
e 41 53
e 47 53
e 6 54
e 14 54
e 23 54
e 24 54
e 33 54
e 34 54
e 35 54
e 37 54
e 42 54
e 49 54
e 52 54
e 4 55
e 8 55
e 16 55
e 21 55
e 23 55
e 28 55
e 15 56
e 25 56
e 33 56
e 44 56
e 48 56
e 50 56
e 55 56
e 3 57
e 19 57
e 23 57
e 27 57
e 32 57
e 34 57
e 36 57
e 42 57
e 43 57
e 46 57
e 3 58
e 13 58
e 17 58
e 22 58
e 24 58
e 26 58
e 30 58
e 33 58
e 34 58
e 36 58
e 42 58
e 49 58
e 6 59
e 13 59
e 16 59
e 27 59
e 30 59
e 32 59
e 49 59
e 50 59
e 4 60
e 15 60
e 17 60
e 20 60
e 22 60
e 28 60
e 33 60
e 34 60
e 38 60
e 41 60
e 42 60
e 46 60
e 49 60
e 55 60
e 56 60
e 1 61
e 3 61
e 5 61
e 6 61
e 8 61
e 9 61
e 11 61
e 15 61
e 23 61
e 25 61
e 29 61
e 44 61
e 49 61
e 51 61
e 53 61
e 57 61
e 59 61
e 60 61
e 2 62
e 7 62
e 12 62
e 15 62
e 20 62
e 21 62
e 26 62
e 29 62
e 33 62
e 48 62
e 50 62
e 58 62
e 2 63
e 6 63
e 22 63
e 38 63
e 44 63
e 46 63
e 48 63
e 60 63
e 3 64
e 6 64
e 9 64
e 15 64
e 17 64
e 26 64
e 33 64
e 41 64
e 42 64
e 52 64
e 55 64
e 56 64
e 59 64
e 2 65
e 5 65
e 8 65
e 19 65
e 35 65
e 36 65
e 38 65
e 41 65
e 48 65
e 53 65
e 13 66
e 19 66
e 21 66
e 29 66
e 38 66
e 41 66
e 51 66
e 57 66
e 61 66
e 8 67
e 21 67
e 33 67
e 34 67
e 40 67
e 42 67
e 48 67
e 51 67
e 57 67
e 58 67
e 59 67
e 3 68
e 6 68
e 21 68
e 24 68
e 27 68
e 31 68
e 42 68
e 44 68
e 45 68
e 61 68
e 6 69
e 12 69
e 26 69
e 33 69
e 40 69
e 42 69
e 44 69
e 46 69
e 11 70
e 21 70
e 25 70
e 38 70
e 56 70
e 57 70
e 23 71
e 26 71
e 31 71
e 35 71
e 39 71
e 41 71
e 66 71
e 13 72
e 16 72
e 22 72
e 28 72
e 31 72
e 32 72
e 44 72
e 47 72
e 50 72
e 56 72
e 63 72
e 68 72
e 7 73
e 9 73
e 11 73
e 27 73
e 28 73
e 49 73
e 57 73
e 62 73
e 67 73
e 70 73
e 1 74
e 4 74
e 11 74
e 17 74
e 24 74
e 32 74
e 38 74
e 44 74
e 58 74
e 65 74
e 6 75
e 17 75
e 19 75
e 21 75
e 32 75
e 33 75
e 41 75
e 54 75
e 66 75
e 68 75
e 71 75
e 72 75
e 13 76
e 16 76
e 23 76
e 24 76
e 28 76
e 59 76
e 60 76
e 65 76
e 68 76
e 71 76
e 5 77
e 13 77
e 22 77
e 26 77
e 33 77
e 56 77
e 58 77
e 59 77
e 66 77
e 67 77
e 71 77
e 74 77
e 5 78
e 25 78
e 31 78
e 33 78
e 59 78
e 63 78
e 69 78
e 70 78
e 2 79
e 6 79
e 7 79
e 10 79
e 13 79
e 14 79
e 18 79
e 23 79
e 38 79
e 42 79
e 56 79
e 57 79
e 59 79
e 67 79
e 71 79
e 1 80
e 27 80
e 37 80
e 47 80
e 48 80
e 52 80
e 53 80
e 2 81
e 18 81
e 20 81
e 21 81
e 41 81
e 43 81
e 48 81
e 58 81
e 71 81
e 3 82
e 9 82
e 11 82
e 16 82
e 21 82
e 27 82
e 30 82
e 43 82
e 44 82
e 45 82
e 60 82
e 63 82
e 68 82
e 2 83
e 5 83
e 10 83
e 12 83
e 14 83
e 15 83
e 18 83
e 19 83
e 23 83
e 24 83
e 30 83
e 42 83
e 48 83
e 50 83
e 56 83
e 58 83
e 64 83
e 73 83
e 6 84
e 9 84
e 12 84
e 18 84
e 24 84
e 36 84
e 40 84
e 44 84
e 47 84
e 50 84
e 57 84
e 68 84
e 69 84
e 80 84
e 81 84
e 4 85
e 14 85
e 24 85
e 30 85
e 33 85
e 50 85
e 51 85
e 67 85
e 14 86
e 18 86
e 31 86
e 33 86
e 34 86
e 38 86
e 48 86
e 50 86
e 66 86
e 67 86
e 69 86
e 73 86
e 77 86
e 84 86
e 1 87
e 21 87
e 23 87
e 27 87
e 31 87
e 39 87
e 55 87
e 56 87
e 57 87
e 60 87
e 66 87
e 75 87
e 81 87
e 3 88
e 37 88
e 46 88
e 49 88
e 52 88
e 54 88
e 59 88
e 63 88
e 75 88
e 1 89
e 6 89
e 9 89
e 20 89
e 22 89
e 29 89
e 36 89
e 47 89
e 48 89
e 54 89
e 59 89
e 66 89
e 69 89
e 76 89
e 78 89
e 3 90
e 21 90
e 25 90
e 28 90
e 36 90
e 44 90
e 68 90
e 77 90
e 87 90
e 88 90
e 2 91
e 6 91
e 19 91
e 29 91
e 30 91
e 31 91
e 34 91
e 35 91
e 36 91
e 49 91
e 52 91
e 53 91
e 67 91
e 74 91
e 75 91
e 79 91
e 81 91
e 82 91
e 90 91
e 2 92
e 3 92
e 7 92
e 31 92
e 32 92
e 43 92
e 50 92
e 73 92
e 84 92
e 87 92
e 90 92
e 3 93
e 6 93
e 8 93
e 14 93
e 21 93
e 25 93
e 31 93
e 32 93
e 36 93
e 38 93
e 47 93
e 50 93
e 51 93
e 56 93
e 78 93
e 83 93
e 84 93
e 85 93
e 4 94
e 5 94
e 14 94
e 29 94
e 33 94
e 34 94
e 37 94
e 86 94
e 87 94
e 91 94
e 1 95
e 3 95
e 11 95
e 12 95
e 18 95
e 20 95
e 22 95
e 25 95
e 30 95
e 34 95
e 35 95
e 36 95
e 42 95
e 47 95
e 50 95
e 53 95
e 78 95
e 22 96
e 25 96
e 43 96
e 58 96
e 68 96
e 70 96
e 87 96
e 18 97
e 20 97
e 28 97
e 30 97
e 31 97
e 32 97
e 37 97
e 42 97
e 43 97
e 49 97
e 52 97
e 74 97
e 75 97
e 78 97
e 79 97
e 14 98
e 21 98
e 24 98
e 27 98
e 28 98
e 32 98
e 42 98
e 47 98
e 64 98
e 68 98
e 70 98
e 75 98
e 77 98
e 5 99
e 14 99
e 33 99
e 34 99
e 47 99
e 52 99
e 75 99
e 76 99
e 80 99
e 88 99
e 95 99
e 98 99
e 10 100
e 17 100
e 18 100
e 21 100
e 24 100
e 32 100
e 41 100
e 45 100
e 58 100
e 70 100
e 71 100
e 73 100
e 77 100
e 82 100
e 89 100
e 94 100
e 97 100
